c 119_4_checker.cnf
c
c field = 119
c formula set type = 4_checker
c
p cnf 5 38
228 
230 
232 
234 
-226 
229 
231 
233 
235 
-227 
228 
230 
232 
234 
-238 
229 
231 
233 
235 
-239 
230 
232 
234 
238 
-228 
231 
233 
235 
239 
-229 
116 
146 
176 
206 
-86 
117 
147 
177 
207 
-87 
116 
146 
176 
206 
-266 
117 
147 
177 
207 
-267 
146 
176 
206 
266 
-116 
147 
177 
207 
267 
-117 
146 
176 
206 
266 
-296 
147 
177 
207 
267 
-297 
176 
206 
266 
296 
-146 
177 
207 
267 
297 
-147 
176 
206 
266 
296 
-326 
177 
207 
267 
297 
-327 
206 
266 
296 
326 
-176 
207 
267 
297 
327 
-177 
206 
266 
296 
326 
-356 
207 
267 
297 
327 
-357 
266 
296 
326 
356 
-206 
267 
297 
327 
357 
-207 
266 
296 
326 
356 
-386 
267 
297 
327 
357 
-387 
108 
140 
172 
204 
-76 
109 
141 
173 
205 
-77 
108 
140 
172 
204 
-268 
109 
141 
173 
205 
-269 
140 
172 
204 
268 
-108 
141 
173 
205 
269 
-109 
208 
264 
292 
320 
-348 
209 
265 
293 
321 
-349 
264 
292 
320 
348 
-208 
265 
293 
321 
349 
-209 
264 
292 
320 
348 
-376 
265 
293 
321 
349 
-377 
